543 5
10 10 10 10 10 

0 0 0 0 0 0 5 2 14 26 38 50 
0 0 0 0 0 0 3 3 6 8 
1 0 0 0 0 4 1 4 
3 0 0 0 0 5 2 12 5 
3 0 0 0 0 5 3 11 9 7 
3 0 0 0 0 9 2 10 9 
5 0 0 0 0 10 1 10 
9 0 0 0 0 10 1 9 
6 0 0 0 0 10 1 13 
7 0 0 0 0 6 1 13 
4 0 0 0 0 7 1 13 
3 0 0 0 0 9 1 13 
0 0 0 0 0 0 1 62 
0 0 0 0 0 0 3 15 23 24 
2 0 2 0 0 0 3 22 21 16 
2 0 6 0 0 0 2 20 17 
8 0 8 0 0 0 1 18 
6 0 6 0 0 0 1 19 
1 0 10 0 0 0 1 25 
4 0 7 0 0 0 1 25 
5 0 10 0 0 0 1 25 
4 0 8 0 0 0 1 25 
1 0 8 0 0 0 1 25 
10 0 10 0 0 0 1 25 
0 0 0 0 0 0 1 62 
0 0 0 0 0 0 2 27 28 
8 0 0 0 6 0 2 30 29 
4 0 0 0 2 0 2 33 31 
9 0 0 0 10 0 2 33 32 
1 0 0 0 7 0 2 36 33 
7 0 0 0 10 0 1 32 
3 0 0 0 7 0 2 36 34 
4 0 0 0 6 0 1 34 
3 0 0 0 10 0 1 35 
4 0 0 0 7 0 1 37 
3 0 0 0 10 0 1 37 
0 0 0 0 0 0 1 62 
0 0 0 0 0 0 4 39 43 44 48 
5 0 0 0 3 0 2 42 40 
6 0 0 0 8 0 2 47 41 
9 0 0 0 10 0 1 45 
2 0 0 0 5 0 1 45 
7 0 0 0 7 0 1 45 
3 0 0 0 10 0 1 45 
1 0 0 0 6 0 1 46 
5 0 0 0 9 0 1 49 
3 0 0 0 7 0 1 49 
10 0 0 0 10 0 1 49 
0 0 0 0 0 0 1 62 
0 0 0 0 0 0 2 51 52 
5 0 0 0 3 0 3 55 54 53 
10 0 0 0 9 0 2 54 53 
1 0 0 0 7 0 2 60 56 
6 0 0 0 8 0 2 60 56 
8 0 0 0 10 0 2 60 56 
8 0 0 0 10 0 1 57 
7 0 0 0 9 0 2 59 58 
1 0 0 0 4 0 1 61 
8 0 0 0 10 0 1 61 
2 0 0 0 5 0 1 61 
0 0 0 0 0 0 1 62 
0 0 0 0 0 0 5 63 75 117 159 201 
0 0 0 0 0 0 4 64 65 66 69 
1 0 0 0 0 5 2 73 67 
5 0 0 0 0 6 2 73 68 
5 0 0 0 0 5 2 73 68 
7 0 0 0 0 10 1 68 
9 0 0 0 0 8 2 72 70 
8 0 0 0 0 8 2 72 70 
5 0 0 0 0 10 1 71 
5 0 0 0 0 10 1 74 
4 0 0 0 0 5 1 74 
1 0 0 0 0 8 1 74 
0 0 0 0 0 0 5 243 275 307 339 351 
0 0 0 0 0 0 2 76 78 
5 0 3 5 4 1 1 77 
7 0 7 7 8 5 2 80 79 
1 0 9 10 5 10 1 79 
7 0 7 6 10 7 4 91 85 83 82 
4 0 9 6 6 8 3 85 83 81 
4 0 9 3 7 9 1 82 
8 0 10 8 5 7 3 89 87 84 
9 0 2 10 10 4 3 95 89 88 
5 0 9 8 7 10 2 95 86 
6 0 10 5 10 5 2 89 86 
1 0 5 6 7 4 1 88 
9 0 8 9 9 10 1 88 
3 0 10 9 8 7 2 97 90 
4 0 5 9 6 8 2 97 90 
1 0 9 7 7 8 3 99 94 92 
6 0 8 8 8 8 3 101 96 95 
4 0 10 2 3 5 1 93 
10 0 10 10 7 10 4 106 104 101 96 
4 0 9 8 9 6 3 106 104 96 
4 0 6 5 10 10 2 106 99 
3 0 5 6 5 5 1 98 
3 0 9 7 9 10 3 107 106 100 
6 0 9 7 10 8 2 105 100 
9 0 7 6 6 7 2 104 102 
1 0 8 10 5 8 2 108 102 
10 0 10 9 9 10 2 107 103 
9 0 8 9 8 5 1 103 
1 0 10 10 10 7 2 110 109 
8 0 7 9 10 8 1 107 
6 0 6 9 10 5 1 107 
1 0 7 10 9 8 2 115 109 
9 0 10 6 5 10 1 108 
9 0 6 5 10 10 3 115 114 111 
7 0 6 10 8 9 2 114 111 
2 0 6 8 7 10 3 115 114 113 
10 0 5 8 6 10 1 112 
6 0 10 10 10 5 1 113 
10 0 4 6 5 5 1 116 
1 0 6 7 8 8 1 116 
4 0 6 7 4 10 1 116 
0 0 0 0 0 0 1 543 
0 0 0 0 0 0 2 118 122 
4 3 0 7 6 2 1 119 
2 7 0 8 9 7 2 121 120 
3 8 0 10 8 10 4 139 128 126 124 
3 8 0 4 5 4 3 128 126 123 
4 8 0 7 10 9 3 128 126 124 
4 6 0 10 7 10 1 124 
2 5 0 7 10 7 3 131 130 125 
1 7 0 8 10 3 2 140 127 
8 6 0 9 5 7 2 140 130 
2 10 0 5 10 6 1 129 
4 4 0 5 5 9 1 129 
9 6 0 7 5 7 3 142 138 132 
10 9 0 10 10 8 3 142 138 132 
10 10 0 9 9 10 4 142 138 135 133 
4 10 0 7 6 4 2 135 133 
8 10 0 9 9 8 2 143 134 
6 7 0 10 9 10 3 157 145 136 
5 9 0 10 7 10 2 145 136 
8 10 0 6 8 6 2 147 137 
4 10 0 6 7 6 3 150 149 141 
4 10 0 8 5 7 3 157 149 141 
6 6 0 10 7 2 2 156 142 
5 8 0 4 10 7 1 142 
8 4 0 10 10 5 2 156 144 
4 5 0 4 4 10 2 148 145 
2 8 0 5 6 10 2 149 146 
8 6 0 9 7 7 1 146 
10 5 0 4 8 10 3 155 150 149 
9 10 0 8 7 8 2 154 148 
10 8 0 6 10 10 3 155 154 152 
3 8 0 7 10 9 2 155 151 
7 7 0 6 10 10 2 154 152 
9 7 0 5 4 6 2 154 152 
2 6 0 8 7 7 1 152 
1 8 0 6 5 5 1 153 
5 8 0 10 10 7 1 158 
9 9 0 10 5 10 1 158 
5 10 0 7 10 10 1 158 
1 10 0 9 4 7 1 158 
6 4 0 10 6 10 1 158 
0 0 0 0 0 0 1 543 
0 0 0 0 0 0 2 160 164 
1 0 2 5 4 1 1 161 
4 0 5 5 5 10 2 163 162 
10 0 7 6 10 5 3 170 168 165 
6 0 7 5 6 10 3 181 168 166 
10 0 10 10 8 7 2 168 166 
8 0 6 7 8 10 1 166 
7 0 10 9 10 5 3 173 172 167 
4 0 5 10 2 10 2 182 169 
9 0 7 8 10 6 2 182 172 
4 0 6 9 6 10 1 171 
10 0 9 8 10 10 1 171 
7 0 9 5 7 4 3 183 180 174 
9 0 6 7 10 5 3 183 180 174 
5 0 3 6 5 7 5 185 183 180 177 176 
8 0 4 5 5 6 3 185 177 175 
1 0 9 7 9 8 1 176 
7 0 8 4 10 10 3 199 188 178 
6 0 8 8 10 8 2 188 178 
6 0 7 10 8 5 2 194 179 
1 0 6 8 9 4 4 198 191 190 184 
9 0 6 6 9 8 3 199 198 184 
10 0 10 10 5 6 3 198 189 183 
2 0 7 8 7 6 2 189 183 
7 0 6 10 9 8 3 197 192 188 
10 0 10 10 10 10 1 186 
9 0 10 5 10 10 2 190 189 
1 0 9 5 8 10 1 187 
3 0 6 10 5 5 2 196 189 
2 0 7 4 9 6 2 191 190 
4 0 10 6 7 8 2 197 192 
3 0 10 9 7 9 2 196 193 
3 0 6 10 7 7 2 196 193 
3 0 7 10 6 10 1 193 
5 0 10 9 7 10 1 195 
6 0 10 10 4 4 1 196 
8 0 6 10 8 10 1 200 
10 0 10 5 5 7 1 200 
3 0 7 8 8 10 1 200 
1 0 10 6 9 9 1 200 
9 0 9 7 8 6 1 200 
0 0 0 0 0 0 1 543 
0 0 0 0 0 0 2 202 205 
7 6 5 2 4 0 1 203 
6 8 5 7 9 0 3 235 207 204 
6 6 9 10 4 0 4 227 213 211 206 
9 3 10 8 5 0 2 211 209 
6 8 5 10 4 0 1 208 
8 8 6 3 10 0 4 230 227 212 210 
7 10 6 10 10 0 2 212 209 
4 3 9 9 10 0 2 230 210 
9 9 4 10 10 0 3 233 226 214 
2 4 7 7 5 0 2 233 212 
9 6 9 6 3 0 3 226 218 215 
6 3 6 5 7 0 4 233 226 218 216 
4 8 7 5 10 0 2 218 215 
2 8 10 5 4 0 2 234 216 
10 10 9 4 5 0 2 232 217 
2 5 10 4 6 0 4 241 240 225 219 
9 5 7 6 7 0 4 239 232 225 220 
1 10 10 6 9 0 2 239 220 
10 10 10 9 10 0 2 229 221 
8 8 10 10 6 0 1 222 
6 9 9 10 9 0 2 238 223 
2 10 10 8 9 0 1 224 
8 6 5 9 10 0 2 237 228 
6 8 6 9 8 0 2 238 229 
6 5 5 10 4 0 2 238 228 
1 10 10 6 9 0 2 236 233 
2 10 7 10 8 0 1 231 
7 10 10 7 8 0 1 231 
2 6 4 10 10 0 1 233 
2 9 4 10 10 0 1 236 
1 10 6 10 10 0 1 238 
6 7 10 10 6 0 1 237 
9 7 9 8 6 0 1 236 
4 5 6 7 8 0 1 236 
3 9 9 7 9 0 1 242 
6 7 7 9 9 0 1 242 
4 10 8 6 10 0 1 242 
5 6 6 6 6 0 1 242 
3 10 6 4 7 0 1 242 
2 8 9 8 6 0 1 242 
0 0 0 0 0 0 1 543 
0 0 0 0 0 0 3 244 245 251 
1 3 2 0 4 0 2 253 246 
3 4 6 0 10 0 2 253 246 
7 8 7 0 6 0 2 250 247 
1 10 7 0 10 0 2 252 248 
6 8 6 0 9 0 1 249 
3 3 8 0 10 0 3 259 256 254 
2 7 10 0 6 0 2 254 252 
6 5 6 0 5 0 2 253 252 
6 6 8 0 4 0 2 259 255 
1 6 10 0 10 0 2 259 255 
10 6 9 0 9 0 1 255 
7 7 7 0 7 0 2 263 257 
3 8 10 0 10 0 2 263 257 
6 6 8 0 7 0 2 261 258 
9 10 6 0 7 0 2 266 260 
5 5 5 0 5 0 2 263 260 
8 9 8 0 8 0 1 262 
4 6 10 0 10 0 1 262 
9 10 10 0 6 0 1 264 
2 10 8 0 7 0 1 264 
10 8 7 0 7 0 2 268 265 
8 10 8 0 8 0 5 273 272 271 269 267 
3 9 10 0 8 0 3 271 269 267 
8 10 7 0 7 0 1 270 
2 8 9 0 9 0 1 269 
6 7 9 0 7 0 1 274 
9 10 5 0 10 0 1 274 
2 7 3 0 6 0 1 274 
3 9 9 0 5 0 1 274 
9 10 7 0 8 0 1 274 
0 0 0 0 0 0 1 543 
0 0 0 0 0 0 7 276 300 301 302 303 304 305 
1 2 1 3 0 0 2 299 277 
10 6 6 8 0 0 3 298 297 278 
4 5 7 4 0 0 1 279 
9 7 5 2 0 0 2 296 280 
3 5 8 8 0 0 1 281 
4 5 7 4 0 0 2 295 282 
8 10 6 8 0 0 3 294 293 283 
1 10 7 9 0 0 1 284 
10 9 5 7 0 0 1 285 
7 10 6 8 0 0 3 292 291 286 
5 5 10 10 0 0 1 287 
7 10 9 10 0 0 1 288 
8 10 8 9 0 0 1 289 
6 9 10 10 0 0 1 290 
8 7 7 8 0 0 1 306 
8 8 10 9 0 0 1 306 
10 3 10 10 0 0 1 306 
3 10 6 7 0 0 1 306 
3 8 3 10 0 0 1 306 
9 8 10 10 0 0 1 306 
10 6 4 10 0 0 1 306 
10 8 10 5 0 0 1 306 
6 6 9 10 0 0 1 306 
8 8 8 10 0 0 1 306 
9 10 7 3 0 0 1 306 
7 6 10 8 0 0 1 306 
9 9 10 5 0 0 1 306 
7 10 7 3 0 0 1 306 
7 7 9 9 0 0 1 306 
9 8 10 8 0 0 1 306 
0 0 0 0 0 0 1 543 
0 0 0 0 0 0 3 308 309 337 
4 0 0 4 4 3 2 336 310 
7 0 0 8 5 9 3 336 322 311 
6 0 0 10 4 9 2 322 311 
10 0 0 8 6 7 1 312 
4 0 0 10 10 9 3 335 334 313 
7 0 0 9 9 7 1 314 
8 0 0 7 10 7 2 333 315 
9 0 0 7 10 3 3 332 331 316 
4 0 0 7 10 9 1 317 
6 0 0 6 5 10 1 318 
7 0 0 4 7 7 2 330 319 
10 0 0 10 6 9 1 320 
5 0 0 10 8 10 3 326 324 321 
6 0 0 10 10 8 3 329 327 323 
6 0 0 7 9 8 2 330 325 
6 0 0 6 7 5 1 328 
6 0 0 5 8 4 1 327 
4 0 0 8 8 9 1 326 
3 0 0 6 7 8 1 338 
3 0 0 8 8 7 1 338 
2 0 0 8 9 6 1 338 
9 0 0 6 8 10 1 338 
7 0 0 10 5 6 1 338 
7 0 0 7 8 6 1 338 
5 0 0 9 8 9 1 338 
8 0 0 4 4 9 1 338 
3 0 0 10 7 10 1 338 
3 0 0 5 7 10 1 338 
6 0 0 9 8 2 1 338 
4 0 0 7 10 9 1 338 
0 0 0 0 0 0 1 543 
0 0 0 0 0 0 3 340 341 342 
8 0 6 0 0 0 3 349 345 343 
8 0 10 0 0 0 2 349 343 
8 0 4 0 0 0 1 343 
5 0 8 0 0 0 2 347 344 
3 0 8 0 0 0 1 346 
2 0 10 0 0 0 1 346 
8 0 5 0 0 0 1 348 
8 0 7 0 0 0 1 348 
3 0 7 0 0 0 1 350 
8 0 10 0 0 0 1 350 
0 0 0 0 0 0 5 383 405 417 439 461 
0 0 0 0 0 0 3 352 353 358 
3 4 3 0 0 4 2 363 354 
5 8 7 0 0 6 2 363 354 
3 10 6 0 0 5 2 359 355 
5 7 6 0 0 10 2 360 356 
7 4 6 0 0 10 1 357 
2 8 9 0 0 5 3 367 364 361 
5 6 7 0 0 10 2 363 362 
9 5 7 0 0 6 1 360 
5 9 8 0 0 6 2 367 362 
7 6 4 0 0 10 1 362 
2 6 9 0 0 6 3 372 369 365 
6 8 7 0 0 5 2 367 365 
1 7 6 0 0 4 2 372 366 
10 10 7 0 0 9 1 366 
2 10 8 0 0 8 2 374 368 
7 10 10 0 0 7 2 372 368 
8 9 6 0 0 9 1 370 
4 9 9 0 0 9 1 370 
5 9 10 0 0 9 1 371 
4 6 10 0 0 5 3 381 376 373 
10 10 10 0 0 6 2 381 373 
1 8 10 0 0 10 4 380 379 377 375 
9 7 10 0 0 8 2 377 375 
9 10 6 0 0 7 1 378 
9 8 10 0 0 10 1 377 
10 7 9 0 0 10 1 382 
10 5 5 0 0 8 1 382 
6 8 7 0 0 7 1 382 
1 6 3 0 0 8 1 382 
5 5 10 0 0 8 1 382 
0 0 0 0 0 0 1 543 
0 0 0 0 0 0 2 384 385 
4 4 0 5 0 0 2 393 386 
5 4 0 8 0 0 3 398 389 387 
9 6 0 5 0 0 2 398 388 
7 6 0 8 0 0 3 393 392 390 
3 8 0 7 0 0 2 392 389 
6 7 0 10 0 0 1 390 
3 10 0 9 0 0 1 391 
1 8 0 10 0 0 4 401 400 396 394 
7 10 0 8 0 0 4 401 400 396 394 
2 4 0 8 0 0 4 401 397 396 395 
9 8 0 6 0 0 1 395 
6 10 0 8 0 0 1 399 
2 7 0 10 0 0 1 399 
10 9 0 3 0 0 1 400 
1 6 0 6 0 0 1 400 
1 10 0 9 0 0 1 402 
4 10 0 10 0 0 1 402 
6 6 0 6 0 0 1 403 
10 10 0 9 0 0 1 404 
9 7 0 5 0 0 1 404 
0 0 0 0 0 0 1 543 
0 0 0 0 0 0 2 406 408 
8 1 0 0 0 0 3 412 410 407 
5 9 0 0 0 0 2 415 409 
7 8 0 0 0 0 3 415 414 412 
6 8 0 0 0 0 2 413 411 
10 10 0 0 0 0 2 413 411 
3 10 0 0 0 0 1 414 
10 7 0 0 0 0 1 413 
7 7 0 0 0 0 1 416 
1 7 0 0 0 0 1 416 
5 8 0 0 0 0 1 416 
0 0 0 0 0 0 5 483 495 507 519 531 
0 0 0 0 0 0 2 418 419 
6 0 0 2 0 1 2 422 421 
3 0 0 4 0 10 2 423 420 
4 0 0 8 0 10 1 421 
10 0 0 5 0 10 2 427 424 
3 0 0 10 0 6 2 425 423 
2 0 0 8 0 10 4 431 429 427 426 
10 0 0 10 0 6 2 429 425 
6 0 0 8 0 6 2 431 426 
9 0 0 6 0 7 2 430 428 
2 0 0 8 0 6 2 430 428 
2 0 0 10 0 10 4 437 434 433 432 
1 0 0 6 0 9 3 437 433 432 
9 0 0 9 0 10 2 437 435 
5 0 0 8 0 8 1 432 
3 0 0 8 0 8 1 435 
10 0 0 10 0 6 1 435 
4 0 0 7 0 8 1 435 
8 0 0 9 0 7 1 436 
6 0 0 8 0 4 1 438 
1 0 0 6 0 8 1 438 
0 0 0 0 0 0 1 543 
0 0 0 0 0 0 1 440 
10 0 0 1 0 4 1 441 
6 0 0 6 0 6 2 443 442 
5 0 0 8 0 10 1 444 
8 0 0 10 0 8 1 444 
1 0 0 7 0 2 2 446 445 
10 0 0 8 0 10 2 449 447 
3 0 0 6 0 5 3 453 449 448 
6 0 0 10 0 5 2 453 448 
10 0 0 7 0 9 3 452 451 450 
4 0 0 9 0 7 5 459 458 456 455 454 
4 0 0 3 0 8 4 459 458 456 454 
2 0 0 10 0 10 4 459 458 455 454 
7 0 0 7 0 10 4 458 456 455 454 
7 0 0 10 0 7 2 459 458 
4 0 0 9 0 10 1 457 
8 0 0 6 0 10 1 457 
2 0 0 7 0 6 1 457 
2 0 0 9 0 10 1 460 
8 0 0 8 0 7 1 460 
5 0 0 9 0 6 1 460 
0 0 0 0 0 0 1 543 
0 0 0 0 0 0 1 462 
5 0 0 0 2 4 2 465 463 
5 0 0 0 5 5 1 464 
3 0 0 0 8 9 1 466 
10 0 0 0 10 9 1 466 
10 0 0 0 5 8 2 468 467 
4 0 0 0 6 7 3 477 474 469 
3 0 0 0 7 4 4 474 473 472 471 
3 0 0 0 10 10 2 473 470 
1 0 0 0 10 9 2 472 471 
1 0 0 0 10 9 4 481 480 479 475 
9 0 0 0 10 10 4 481 480 479 478 
9 0 0 0 4 8 3 481 479 476 
5 0 0 0 3 5 2 479 478 
7 0 0 0 10 8 1 478 
3 0 0 0 10 6 1 478 
10 0 0 0 10 6 1 480 
10 0 0 0 7 7 1 482 
8 0 0 0 10 10 1 482 
7 0 0 0 7 9 1 482 
3 0 0 0 6 7 1 482 
0 0 0 0 0 0 1 543 
0 0 0 0 0 0 4 484 485 486 488 
2 4 0 0 0 0 1 487 
6 8 0 0 0 0 1 487 
1 9 0 0 0 0 1 487 
4 7 0 0 0 0 1 489 
5 5 0 0 0 0 1 489 
9 8 0 0 0 0 2 493 490 
4 6 0 0 0 0 2 492 491 
5 10 0 0 0 0 1 494 
4 9 0 0 0 0 1 494 
2 9 0 0 0 0 1 494 
0 0 0 0 0 0 1 543 
0 0 0 0 0 0 4 496 497 498 500 
10 0 0 5 0 0 1 499 
9 0 0 7 0 0 1 499 
1 0 0 9 0 0 1 499 
4 0 0 10 0 0 1 501 
1 0 0 10 0 0 1 501 
6 0 0 5 0 0 3 505 504 502 
1 0 0 8 0 0 1 503 
7 0 0 6 0 0 1 506 
6 0 0 6 0 0 1 506 
7 0 0 9 0 0 1 506 
0 0 0 0 0 0 1 543 
0 0 0 0 0 0 2 508 509 
3 0 0 0 0 7 2 513 510 
1 0 0 0 0 5 2 513 510 
5 0 0 0 0 8 2 512 511 
4 0 0 0 0 5 3 517 516 514 
9 0 0 0 0 10 3 517 516 514 
5 0 0 0 0 6 3 517 516 514 
9 0 0 0 0 10 1 515 
1 0 0 0 0 7 1 518 
5 0 0 0 0 7 1 518 
8 0 0 0 0 10 1 518 
0 0 0 0 0 0 1 543 
0 0 0 0 0 0 3 520 521 527 
8 0 0 2 0 0 3 526 525 524 
4 0 0 8 0 0 1 522 
2 0 0 10 0 0 2 529 523 
1 0 0 7 0 0 1 524 
7 0 0 10 0 0 1 528 
8 0 0 9 0 0 1 529 
6 0 0 10 0 0 1 528 
2 0 0 4 0 0 1 528 
4 0 0 7 0 0 1 530 
10 0 0 8 0 0 1 530 
0 0 0 0 0 0 1 543 
0 0 0 0 0 0 4 532 533 535 536 
8 1 0 0 0 0 1 534 
5 9 0 0 0 0 1 534 
2 9 0 0 0 0 2 541 537 
8 8 0 0 0 0 2 541 537 
4 7 0 0 0 0 2 541 537 
7 7 0 0 0 0 2 540 538 
5 9 0 0 0 0 1 539 
1 8 0 0 0 0 1 542 
8 9 0 0 0 0 1 542 
9 8 0 0 0 0 1 542 
0 0 0 0 0 0 1 543 
0 0 0 0 0 0 0 
